38
100
80	1
78	1
77	1
76	4
75	3
74	1
73	2
72	1
71	1
70	1
69	2
67	1
66	1
62	1
61	1
60	1
56	1
55	2
52	1
50	1
43	1
41	1
40	2
38	2
37	1
36	1
35	1
32	1
30	1
29	1
28	1
25	1
22	2
20	1
19	1
17	2
16	1
13	1
